c Source: inf-euroroad (2-hop neighborhood of node 141)
c n=22, m=32, circuit_rank=11
c Augmented with 8 edges for Eulerian condition
p sp 22
e 6 18
e 3 8
e 9 20
e 3 4
e 11 14
e 17 18
e 10 11
e 3 11
e 3 7
e 3 18
e 4 5
e 3 14
e 9 12
e 8 9
e 1 2
e 6 19
e 11 15
e 11 16
e 18 20
e 2 3
e 13 14
e 8 12
e 6 7
e 14 19
e 1 3
e 5 6
e 8 21
e 9 21
e 10 22
e 11 22
e 13 15
e 16 17
